sat
(:added-eqs                   351591
 :arith-eq-adapter            1489
 :arith-assume-eqs            2
 :arith-bound-propagations-lp 24187
 :arith-conflicts             29
 :arith-diseq                 16221
 :arith-fixed-eqs             12717
 :arith-lower                 23169
 :arith-make-feasible         12366
 :arith-max-columns           768
 :arith-max-rows              329
 :arith-offset-eqs            11243
 :arith-upper                 27572
 :binary-propagations         1267181
 :conflicts                   4264
 :decisions                   345605
 :del-clause                  2907
 :elim-unconstrained          2
 :final-checks                2
 :interface-eqs               1
 :max-memory                  30.26
 :memory                      22.17
 :minimized-lits              8435
 :mk-bool-var                 10018
 :mk-clause                   8581
 :mk-clause-binary            10465
 :num-allocs                  49127910
 :num-checks                  1
 :propagations                1675791
 :restarts                    34
 :rlimit-count                11527532
 :time                        3.15
 :total-time                  3.22)
